language ESSENCE' 1.0

letting jobs = 102
letting horizon = 811
letting resourcesRenew = 2
letting resourcesNonrenew = 2
letting resourceLimits = [11, 12, 390, 369]
letting successors = [[2, 3, 5, 6, 7, 8, 9, 11, 15], [4], [25, 20, 19, 16, 14, 13, 12], [25, 18, 17, 12, 10], [25, 24, 19, 13], [28, 27, 25, 22, 21, 20], [25, 24, 22, 21, 14], [32, 28, 27, 25, 24, 23, 19], [28, 27, 25, 21, 19], [24, 21, 19, 14], [24, 22, 20, 14], [42, 28, 24, 22, 21], [29, 28, 27, 21], [35, 32, 30, 29, 27, 23], [42, 32, 30, 23, 22], [29, 27, 21], [42, 36, 34, 33, 32, 29, 28, 24], [45, 42, 36, 35, 34, 33, 32, 29, 26], [42, 36, 35, 34, 33, 30, 29, 26], [42, 36, 35, 34, 32, 30, 29, 26], [36, 35, 32, 23], [45, 36, 35, 34, 33, 29, 26], [45, 34, 33, 31, 26], [45, 41, 40, 38, 35, 30], [52, 45, 31], [52, 49, 46, 41, 40, 38, 37], [49, 43, 42, 40, 37, 36], [52, 49, 40, 39, 38, 37], [52, 31], [52, 49, 43, 39, 37], [49, 39, 38, 37], [66, 49, 46, 43, 40, 37], [56, 53, 49, 47, 46, 44, 43], [66, 64, 60, 56, 54, 53, 50, 49, 47, 44], [64, 58, 56, 54, 53, 52, 50, 47, 44], [58, 54, 53, 52, 50, 47, 46, 44], [64, 60, 58, 56, 54, 53, 50, 47, 44], [66, 60, 56, 55, 51, 48, 47, 43], [66, 58, 54, 53, 50, 48, 47, 46], [64, 58, 56, 54, 50, 47, 44], [66, 64, 58, 54, 50, 47, 44], [64, 56, 53, 52, 50, 44], [68, 65, 64, 63, 59, 58, 57, 54, 50], [72, 59, 57, 55, 51, 48], [68, 66, 57, 55, 53, 51], [72, 64, 61, 57, 55, 51], [83, 73, 71, 70, 67, 63, 59, 57], [80, 75, 74, 71, 68, 65, 63, 62], [83, 74, 73, 71, 68, 63, 57], [83, 76, 70, 67, 62, 61], [83, 75, 74, 73, 71, 70, 67, 63], [93, 80, 78, 74, 72, 66, 62], [80, 76, 74, 72, 65, 62], [82, 80, 78, 76, 74, 73, 72, 71, 69], [80, 78, 75, 74, 65, 62], [93, 92, 78, 76, 61], [91, 87, 84, 82, 80, 79, 77, 75, 69], [93, 91, 84, 82, 80, 76, 75, 69], [91, 87, 84, 78, 76, 74, 69], [82, 80, 77, 76, 73, 69], [82, 79, 75, 73, 71], [87, 84, 82, 79, 77, 69], [93, 92, 91, 90, 84, 77, 76], [92, 90, 87, 84, 82, 81, 74], [93, 92, 87, 85, 81, 73], [91, 87, 76, 69], [93, 91, 87, 84, 80, 78, 77], [101, 90, 89, 87, 84, 81, 79, 78], [101, 92, 90, 89, 88, 81], [101, 90, 86, 85, 84, 82], [87, 81, 77], [77, 75], [101, 100, 97, 91, 90, 89, 84], [98, 86, 77], [99, 98, 88, 86, 85], [99, 86, 79], [101, 95, 89, 88, 85], [98, 86, 85], [98, 95, 85], [98, 95, 85], [96, 86], [99, 96, 95, 94], [100, 95, 91], [95, 88], [97, 96, 94], [100, 95, 94], [100, 99, 97], [96, 94], [96, 94], [99, 98], [98], [97], [95], [102], [102], [102], [102], [102], [102], [102], [102], []]
letting durations = [[0], [3, 4, 6], [7, 9, 10], [1, 8, 9], [1, 1, 4], [4, 5, 7], [6, 8, 10], [2, 4, 8], [3, 5, 9], [2, 3, 9], [3, 6, 9], [5, 7, 8], [6, 9, 10], [1, 2, 6], [1, 5, 7], [4, 7, 9], [1, 6, 7], [2, 4, 6], [4, 4, 9], [2, 3, 9], [2, 7, 8], [1, 2, 6], [1, 3, 5], [5, 9, 10], [5, 9, 10], [1, 2, 10], [3, 3, 4], [4, 6, 10], [3, 5, 6], [4, 9, 10], [4, 5, 10], [1, 9, 10], [4, 7, 9], [5, 7, 10], [6, 7, 9], [1, 2, 4], [4, 8, 10], [5, 9, 10], [3, 5, 6], [1, 6, 9], [4, 7, 9], [3, 5, 9], [2, 3, 4], [4, 6, 10], [2, 7, 9], [6, 9, 10], [1, 2, 10], [1, 2, 3], [1, 2, 5], [2, 4, 7], [2, 5, 10], [1, 6, 8], [3, 7, 10], [1, 3, 7], [1, 3, 5], [4, 5, 7], [2, 3, 4], [4, 10, 10], [1, 3, 8], [5, 7, 10], [7, 8, 9], [2, 3, 8], [2, 9, 10], [1, 5, 8], [4, 7, 8], [1, 2, 9], [1, 6, 7], [2, 6, 10], [1, 4, 6], [4, 5, 10], [2, 3, 4], [7, 8, 9], [8, 9, 10], [4, 6, 7], [3, 8, 10], [3, 5, 9], [2, 3, 7], [1, 5, 9], [2, 4, 9], [1, 3, 7], [5, 6, 8], [3, 6, 7], [3, 4, 10], [7, 7, 9], [1, 5, 8], [3, 5, 10], [2, 5, 5], [5, 9, 10], [3, 6, 10], [5, 5, 9], [4, 9, 9], [2, 3, 5], [3, 5, 6], [1, 7, 9], [5, 7, 7], [4, 5, 8], [4, 6, 6], [3, 4, 8], [7, 9, 10], [2, 3, 10], [3, 5, 8], [0]]
letting resourceUsage = [[[0, 0, 0, 0]], [[1, 4, 3, 0], [1, 4, 0, 8], [1, 4, 0, 7]], [[4, 4, 0, 2], [3, 3, 5, 0], [3, 3, 0, 1]], [[1, 4, 0, 8], [1, 4, 0, 4], [1, 4, 3, 0]], [[5, 4, 0, 8], [5, 4, 4, 0], [5, 4, 3, 0]], [[3, 4, 0, 5], [3, 3, 7, 0], [2, 2, 6, 0]], [[2, 4, 7, 0], [1, 4, 0, 7], [1, 2, 7, 0]], [[3, 2, 0, 5], [3, 2, 3, 0], [1, 1, 2, 0]], [[4, 4, 9, 0], [3, 3, 7, 0], [2, 3, 5, 0]], [[3, 4, 6, 0], [3, 2, 3, 0], [1, 2, 3, 0]], [[5, 4, 0, 4], [5, 2, 0, 3], [5, 1, 0, 2]], [[3, 5, 0, 9], [2, 2, 0, 7], [2, 2, 0, 5]], [[4, 3, 8, 0], [4, 2, 4, 0], [4, 2, 0, 3]], [[2, 5, 0, 5], [1, 4, 9, 0], [1, 2, 9, 0]], [[2, 3, 6, 0], [2, 2, 6, 0], [2, 2, 3, 0]], [[4, 5, 6, 0], [4, 4, 5, 0], [4, 4, 0, 5]], [[3, 2, 10, 0], [2, 2, 10, 0], [2, 1, 0, 2]], [[5, 4, 0, 2], [3, 3, 6, 0], [1, 2, 4, 0]], [[4, 2, 3, 0], [2, 2, 0, 2], [2, 2, 0, 1]], [[1, 5, 9, 0], [1, 3, 0, 2], [1, 3, 0, 1]], [[3, 2, 6, 0], [3, 2, 5, 0], [3, 2, 0, 2]], [[4, 5, 0, 6], [4, 4, 4, 0], [4, 4, 1, 0]], [[3, 4, 0, 5], [2, 3, 0, 3], [2, 2, 0, 1]], [[4, 2, 0, 2], [2, 2, 0, 2], [2, 2, 4, 0]], [[4, 4, 1, 0], [4, 2, 1, 0], [3, 2, 1, 0]], [[3, 2, 9, 0], [3, 2, 8, 0], [2, 2, 7, 0]], [[5, 1, 0, 9], [4, 1, 6, 0], [3, 1, 0, 3]], [[2, 5, 0, 9], [1, 4, 0, 6], [1, 4, 6, 0]], [[5, 2, 0, 9], [4, 1, 6, 0], [4, 1, 1, 0]], [[4, 2, 7, 0], [4, 1, 7, 0], [4, 1, 6, 0]], [[3, 3, 10, 0], [2, 2, 0, 6], [1, 2, 0, 5]], [[4, 2, 6, 0], [4, 2, 0, 4], [3, 2, 4, 0]], [[1, 5, 0, 4], [1, 2, 1, 0], [1, 2, 0, 3]], [[2, 1, 4, 0], [2, 1, 3, 0], [2, 1, 2, 0]], [[2, 3, 0, 1], [1, 3, 0, 1], [1, 2, 0, 1]], [[4, 4, 5, 0], [2, 3, 0, 9], [2, 3, 3, 0]], [[2, 5, 0, 7], [2, 5, 3, 0], [2, 5, 1, 0]], [[5, 2, 0, 10], [5, 1, 0, 5], [5, 1, 0, 3]], [[3, 2, 0, 9], [2, 2, 7, 0], [1, 2, 7, 0]], [[4, 4, 1, 0], [4, 3, 0, 4], [4, 2, 1, 0]], [[2, 4, 0, 9], [2, 4, 7, 0], [2, 4, 6, 0]], [[4, 5, 7, 0], [3, 4, 0, 5], [2, 4, 0, 5]], [[4, 3, 0, 10], [4, 2, 7, 0], [4, 2, 6, 0]], [[2, 3, 0, 6], [2, 3, 0, 5], [2, 3, 2, 0]], [[3, 2, 0, 7], [3, 2, 7, 0], [3, 1, 6, 0]], [[5, 5, 3, 0], [4, 3, 0, 7], [4, 3, 0, 5]], [[4, 2, 8, 0], [3, 2, 0, 4], [2, 2, 5, 0]], [[4, 4, 0, 7], [4, 4, 4, 0], [3, 4, 3, 0]], [[3, 4, 7, 0], [2, 2, 4, 0], [2, 1, 4, 0]], [[3, 1, 5, 0], [3, 1, 4, 0], [3, 1, 3, 0]], [[4, 5, 5, 0], [2, 3, 0, 6], [1, 2, 4, 0]], [[3, 4, 0, 4], [3, 4, 7, 0], [3, 4, 6, 0]], [[4, 4, 0, 8], [4, 3, 0, 8], [4, 3, 4, 0]], [[4, 1, 0, 7], [3, 1, 0, 7], [3, 1, 0, 6]], [[1, 3, 0, 5], [1, 3, 5, 0], [1, 3, 3, 0]], [[4, 3, 2, 0], [3, 3, 2, 0], [3, 3, 0, 8]], [[4, 3, 6, 0], [4, 2, 6, 0], [4, 1, 0, 2]], [[2, 3, 0, 3], [2, 3, 8, 0], [1, 3, 0, 2]], [[4, 4, 6, 0], [4, 4, 0, 6], [4, 2, 1, 0]], [[3, 2, 0, 6], [2, 1, 6, 0], [1, 1, 6, 0]], [[2, 2, 0, 8], [2, 2, 3, 0], [2, 2, 2, 0]], [[3, 2, 0, 4], [3, 1, 0, 3], [3, 1, 5, 0]], [[5, 4, 0, 7], [3, 2, 0, 5], [2, 2, 1, 0]], [[1, 5, 0, 8], [1, 5, 8, 0], [1, 5, 0, 3]], [[2, 2, 4, 0], [1, 2, 3, 0], [1, 2, 1, 0]], [[4, 4, 8, 0], [3, 4, 0, 2], [3, 4, 7, 0]], [[4, 2, 0, 2], [4, 1, 7, 0], [4, 1, 6, 0]], [[5, 4, 0, 7], [3, 3, 0, 6], [3, 3, 4, 0]], [[2, 4, 0, 9], [2, 2, 7, 0], [2, 2, 0, 5]], [[2, 5, 0, 3], [1, 3, 0, 2], [1, 2, 2, 0]], [[5, 3, 9, 0], [5, 3, 5, 0], [5, 3, 4, 0]], [[3, 4, 8, 0], [2, 4, 5, 0], [2, 4, 0, 1]], [[4, 3, 3, 0], [2, 2, 0, 5], [1, 1, 2, 0]], [[2, 2, 0, 4], [2, 2, 6, 0], [2, 2, 3, 0]], [[4, 5, 6, 0], [3, 4, 0, 3], [3, 3, 4, 0]], [[2, 2, 4, 0], [2, 2, 0, 2], [2, 2, 2, 0]], [[3, 4, 8, 0], [3, 3, 6, 0], [1, 2, 0, 5]], [[2, 5, 9, 0], [1, 4, 0, 6], [1, 3, 6, 0]], [[2, 3, 4, 0], [2, 3, 0, 8], [2, 3, 0, 5]], [[3, 4, 0, 6], [2, 3, 8, 0], [2, 3, 7, 0]], [[2, 4, 4, 0], [2, 2, 2, 0], [2, 2, 1, 0]], [[3, 5, 5, 0], [2, 5, 0, 6], [2, 5, 0, 4]], [[1, 3, 6, 0], [1, 1, 0, 5], [1, 1, 0, 2]], [[4, 4, 0, 8], [4, 4, 4, 0], [4, 4, 0, 7]], [[5, 4, 0, 7], [5, 4, 7, 0], [5, 4, 6, 0]], [[1, 2, 3, 0], [1, 2, 2, 0], [1, 2, 0, 7]], [[4, 4, 5, 0], [4, 4, 0, 7], [3, 4, 3, 0]], [[3, 5, 7, 0], [3, 2, 5, 0], [2, 2, 1, 0]], [[5, 3, 0, 4], [4, 2, 3, 0], [4, 2, 0, 4]], [[2, 5, 0, 8], [1, 3, 3, 0], [1, 2, 0, 5]], [[4, 4, 8, 0], [4, 3, 5, 0], [4, 2, 0, 7]], [[4, 4, 7, 0], [4, 3, 0, 6], [4, 1, 0, 3]], [[3, 3, 0, 10], [1, 2, 0, 9], [1, 2, 0, 8]], [[4, 4, 0, 6], [4, 3, 0, 5], [4, 2, 0, 3]], [[4, 1, 0, 9], [4, 1, 3, 0], [3, 1, 0, 3]], [[4, 5, 7, 0], [4, 5, 3, 0], [4, 5, 2, 0]], [[4, 1, 7, 0], [4, 1, 4, 0], [3, 1, 0, 2]], [[3, 3, 0, 6], [2, 2, 0, 5], [1, 1, 4, 0]], [[2, 3, 0, 8], [2, 1, 3, 0], [2, 1, 0, 4]], [[5, 4, 4, 0], [3, 3, 0, 4], [2, 3, 4, 0]], [[4, 5, 5, 0], [4, 5, 4, 0], [4, 5, 3, 0]], [[0, 0, 0, 0]]]
